(set-logic QF_UF)
(declare-fun A0 () Bool)
(declare-fun A1 () Bool)
(declare-fun A2 () Bool)
(declare-fun A3 () Bool)
(declare-fun A4 () Bool)
(declare-fun A5 () Bool)
(declare-fun A6 () Bool)
(declare-fun A7 () Bool)
(declare-fun A8 () Bool)
(declare-fun A9 () Bool)
(declare-fun A10 () Bool)
(declare-fun A11 () Bool)
(declare-fun A12 () Bool)
(declare-fun A13 () Bool)
(declare-fun A14 () Bool)
(declare-fun A15 () Bool)
(declare-fun A16 () Bool)
(declare-fun A17 () Bool)
(declare-fun A18 () Bool)
(declare-fun A19 () Bool)
(declare-fun A20 () Bool)
(declare-fun A21 () Bool)
(declare-fun A22 () Bool)
(declare-fun A23 () Bool)
(declare-fun A24 () Bool)
(assert (let ((.def_0 (or A24 A0))) (let ((.def_1 (not A5))) (let ((.def_2 (or A10 .def_1))) (let ((.def_3 (not .def_2))) (let ((.def_4 (and .def_3 .def_0))) (let ((.def_5 (not .def_4))) (let ((.def_6 (and A24 A1))) (let ((.def_7 (not A22))) (let ((.def_8 (or A22 .def_7))) (let ((.def_9 (or .def_8 .def_6))) (let ((.def_10 (not .def_9))) (let ((.def_11 (and .def_10 .def_5))) (let ((.def_12 (not A12))) (let ((.def_13 (and .def_12 A22))) (let ((.def_14 (not A17))) (let ((.def_15 (and .def_14 A23))) (let ((.def_16 (or .def_15 .def_13))) (let ((.def_17 (not .def_16))) (let ((.def_18 (not A14))) (let ((.def_19 (not A4))) (let ((.def_20 (and .def_19 .def_18))) (let ((.def_21 (and A10 .def_14))) (let ((.def_22 (not .def_21))) (let ((.def_23 (or .def_22 .def_20))) (let ((.def_24 (= .def_23 .def_17))) (let ((.def_25 (and .def_24 .def_11))) (let ((.def_26 (not A6))) (let ((.def_27 (or .def_26 A19))) (let ((.def_28 (and A9 A5))) (let ((.def_29 (= .def_28 .def_27))) (let ((.def_30 (or A17 A3))) (let ((.def_31 (not .def_30))) (let ((.def_32 (not A20))) (let ((.def_33 (or .def_32 A18))) (let ((.def_34 (or .def_33 .def_31))) (let ((.def_35 (or .def_34 .def_29))) (let ((.def_36 (not A21))) (let ((.def_37 (and A3 .def_36))) (let ((.def_38 (not A15))) (let ((.def_39 (or A19 .def_38))) (let ((.def_40 (not .def_39))) (let ((.def_41 (= .def_40 .def_37))) (let ((.def_42 (not .def_41))) (let ((.def_43 (not A19))) (let ((.def_44 (and .def_26 .def_43))) (let ((.def_45 (not .def_44))) (let ((.def_46 (and A22 A1))) (let ((.def_47 (not .def_46))) (let ((.def_48 (and .def_47 .def_45))) (let ((.def_49 (not .def_48))) (let ((.def_50 (= .def_49 .def_42))) (let ((.def_51 (not .def_50))) (let ((.def_52 (and .def_51 .def_35))) (let ((.def_53 (and .def_52 .def_25))) (let ((.def_54 (and A1 A14))) (let ((.def_55 (or .def_26 A11))) (let ((.def_56 (not .def_55))) (let ((.def_57 (and .def_56 .def_54))) (let ((.def_58 (not A9))) (let ((.def_59 (or .def_58 A6))) (let ((.def_60 (not .def_59))) (let ((.def_61 (not A7))) (let ((.def_62 (or A21 .def_61))) (let ((.def_63 (and .def_62 .def_60))) (let ((.def_64 (and .def_63 .def_57))) (let ((.def_65 (not .def_64))) (let ((.def_66 (and A7 .def_43))) (let ((.def_67 (not .def_66))) (let ((.def_68 (or .def_14 A13))) (let ((.def_69 (and .def_68 .def_67))) (let ((.def_70 (not A23))) (let ((.def_71 (and .def_70 .def_61))) (let ((.def_72 (not .def_71))) (let ((.def_73 (and .def_32 .def_12))) (let ((.def_74 (not .def_73))) (let ((.def_75 (and .def_74 .def_72))) (let ((.def_76 (or .def_75 .def_69))) (let ((.def_77 (not .def_76))) (let ((.def_78 (= .def_77 .def_65))) (let ((.def_79 (not A16))) (let ((.def_80 (and A19 .def_79))) (let ((.def_81 (not .def_80))) (let ((.def_82 (not A13))) (let ((.def_83 (= A14 .def_82))) (let ((.def_84 (not .def_83))) (let ((.def_85 (or .def_84 .def_81))) (let ((.def_86 (not .def_85))) (let ((.def_87 (not A2))) (let ((.def_88 (or .def_58 .def_87))) (let ((.def_89 (not A18))) (let ((.def_90 (and .def_89 .def_79))) (let ((.def_91 (not .def_90))) (let ((.def_92 (or .def_91 .def_88))) (let ((.def_93 (not .def_92))) (let ((.def_94 (and .def_93 .def_86))) (let ((.def_95 (and A16 A13))) (let ((.def_96 (not .def_95))) (let ((.def_97 (= .def_89 A8))) (let ((.def_98 (not .def_97))) (let ((.def_99 (or .def_98 .def_96))) (let ((.def_100 (or .def_87 A24))) (let ((.def_101 (not .def_100))) (let ((.def_102 (not A8))) (let ((.def_103 (or .def_102 A4))) (let ((.def_104 (not .def_103))) (let ((.def_105 (and .def_104 .def_101))) (let ((.def_106 (or .def_105 .def_99))) (let ((.def_107 (and .def_106 .def_94))) (let ((.def_108 (not .def_107))) (let ((.def_109 (and .def_108 .def_78))) (let ((.def_110 (not .def_109))) (let ((.def_111 (and .def_110 .def_53))) (let ((.def_112 (not .def_111))) .def_112))))))))))))))))))))))))))))))))))))))))))))))))))))))))))))))))))))))))))))))))))))))))))))))))))))))))))))))))))
(check-sat)
